Minimize
    obj: 3x1 + 5x2 + 6x3 + 9x4 + 10x5 + 10x6

Subject To
    -2x1 + 6x2 - 3x3 + 4x4 + 1x5 - 2x6 >=  2
    -5x1 - 3x2 + 1x3 + 3x4 - 2x5 + 1x6 >= -2
     5x1 - 1x2 + 4x3 - 2x4 + 2x5 - 1x6 >=  3

Binary
    x1 x2 x3 x4 x5 x6
